evm/ejemplos_dzn/EthPriceMintModule_run_code_of_0_block_104_0_input.dzn
TERM = { '.', s0, s1, s5, s6, s7, s8, s9};
null = '.';
s = 6;
n = 6;
min = 6;
N0 = 1;
ZEROARYOP = { SELFBALANCE_0 };
zeroout = [ s7 ];
zerogas = [ 5 ];
zerosz = [ 1 ];
zerolb = [ 1 ];
zeroub = [ 6 ];
N1 = 1;
UNARYOP = { ISZERO_0 };
unin = [ s6 ];
unout = [ s8 ];
ungas = [ 3 ];
unsz = [ 1 ];
unlb = [ 1 ];
unub = [ 6 ];
N2 = 1;
BINARYOP = { LT_0 };
binin1 = [s7 ];
binin2 = [s1 ];
binout = [s6 ];
bincomm = [false ];
bingas = [3 ];
binsz = [1 ];
binlb = [ 1 ];
binub = [ 6 ];
NA = 0;
ASSOCIATIVEADDOP = {};
naddin =  [];
addin =  [||];
addout = [];
addcomm = [];
addgas = [];
addsz =  [];
addlb =  [];
addub =  [];
NPUSH = 2;
PUSHOP = { 'PUSH [tag]_0', PUSH_0 };
pushout = [ s5, s9 ];
pushgas = [ 3, 3 ];
pushsz = [ 3, 2 ];
pushlb = [ 1, 1 ];
pushub = [ 6, 6 ];
NSTORE = 0;
STOROP = {};
storin1 =  [];
storin2 =  [];
storlb =  [];
storub =  [];
storgas = [];
storsz = [];
DUP_ENUM = { DUP1, DUP2, DUP3, DUP4, DUP5};
SWAP_ENUM = { SWAP1, SWAP2, SWAP3, SWAP4, SWAP5};
startstack = [ s0, s1, null, null, null, null ];
endstack = [ s5, s8, s9, s0, s1, null ];
lib = true;
order_output = [| |];
m_dep_n = 0;
memory_dependences = [| |];
s_dep_n = 0;
store_dependences = [| |];
