evm/ejemplos_results/EthPriceMintModule_run_code_of_0_block_104_0_input.txt
value = 6;
fgas = [3, 3, 5, 3, 3, 3];
fsize = [2, 1, 1, 1, 1, 3];
states = 
[| s0, s1, '.', '.', '.', '.'
 | s9, s0,  s1, '.', '.', '.'
 | s1, s9,  s0,  s1, '.', '.'
 | s7, s1,  s9,  s0,  s1, '.'
 | s6, s9,  s0,  s1, '.', '.'
 | s8, s9,  s0,  s1, '.', '.'
 | s5, s8,  s9,  s0,  s1, '.'
 |];
program = [P(PUSH_0), D(DUP3), Z(SELFBALANCE_0), BI(LT_0), U(ISZERO_0), P('PUSH [tag]_0')];
% time elapsed: 1.10 s
----------
==========
% time elapsed: 1.10 s
% [value > 5]
